% Logging successfully configured
%%%mzn-stat: initTime=0.006541279
%%%mzn-stat: objective=939
%%%mzn-stat: nodes=2935
%%%mzn-stat: restarts=0
%%%mzn-stat: peakDepth=458
%%%mzn-stat: solveTime=0.048816874
%%%mzn-stat: variables=1055
%%%mzn-stat: propagators=671
%%%mzn-stat: failures=182
%%%mzn-stat: propagations=18713
%%%mzn-stat: nogoods=182
%%%mzn-stat: numAtomicConstraintsPropagated=0
%%%mzn-stat: allDifferentNumber1TotalHallSetSize=1168
%%%mzn-stat: allDifferentNumber1NumberOfConflicts=182
%%%mzn-stat: allDifferentNumber1MaxHallSetSize=41
%%%mzn-stat: allDifferentNumber1PropagationsTotal=3152
%%%mzn-stat: allDifferentNumber1PropagationsThatFoundConflict=182
%%%mzn-stat: circuitNumber2PropagationsThatFoundConflict=0
%%%mzn-stat: circuitNumber2TotalFixedEdgesAtConflict=0
%%%mzn-stat: circuitNumber2NumberOfConflicts=0
%%%mzn-stat: circuitNumber2PropagationsThatPruned=4
%%%mzn-stat: circuitNumber2PropagationsTotal=2440
%%%mzn-stat: AverageConflictSize=5.670329670329671
%%%mzn-stat: NumUnitNogoodsLearned=0
%%%mzn-stat: AverageLearnedNogoodLength=6.554945054945055
%%%mzn-stat: AverageBacktrackAmount=0
%%%mzn-stat: AverageLbd=6.0054945054945055
%%%mzn-stat: 2AutonomousSearchNumBackupCalled=414
%%%mzn-stat: 2AutonomousSearchNumPredicatesRemoved=0
%%%mzn-stat: 2AutonomousSearchNumCalls=415
%%%mzn-stat: 2AutonomousSearchNumPredicatesAdded=308
%%%mzn-stat: 2AutonomousSearchAverageSizeOfHeap=0.7421686746987952
%%%mzn-stat: 2AutonomousSearchNumAssignedPredicatesEncountered=308
%%%mzn-stat-end
maxleg = 939;
succ = array1d(1..50,[2, 7, 17, 18, 10, 15, 3, 5, 14, 6, 20, 13, 11, 26, 37, 36, 8, 9, 4, 30, 48, 1, 24, 29, 16, 44, 31, 40, 35, 28, 34, 21, 45, 49, 19, 42, 12, 39, 50, 25, 38, 27, 33, 41, 22, 32, 43, 23, 46, 47]);
% time elapsed: 1.60 s
----------
%%%mzn-stat: initTime=0.006541279
%%%mzn-stat: objective=911
%%%mzn-stat: nodes=4614
%%%mzn-stat: restarts=0
%%%mzn-stat: peakDepth=458
%%%mzn-stat: solveTime=0.076423931
%%%mzn-stat: variables=1055
%%%mzn-stat: propagators=671
%%%mzn-stat: failures=270
%%%mzn-stat: propagations=28878
%%%mzn-stat: nogoods=270
%%%mzn-stat: numAtomicConstraintsPropagated=0
%%%mzn-stat: allDifferentNumber1TotalHallSetSize=1472
%%%mzn-stat: allDifferentNumber1NumberOfConflicts=270
%%%mzn-stat: allDifferentNumber1MaxHallSetSize=41
%%%mzn-stat: allDifferentNumber1PropagationsTotal=4697
%%%mzn-stat: allDifferentNumber1PropagationsThatFoundConflict=270
%%%mzn-stat: circuitNumber2PropagationsThatFoundConflict=0
%%%mzn-stat: circuitNumber2TotalFixedEdgesAtConflict=0
%%%mzn-stat: circuitNumber2NumberOfConflicts=0
%%%mzn-stat: circuitNumber2PropagationsThatPruned=15
%%%mzn-stat: circuitNumber2PropagationsTotal=3657
%%%mzn-stat: AverageConflictSize=5.111111111111111
%%%mzn-stat: NumUnitNogoodsLearned=0
%%%mzn-stat: AverageLearnedNogoodLength=5.703703703703703
%%%mzn-stat: AverageBacktrackAmount=0
%%%mzn-stat: AverageLbd=5.2555555555555555
%%%mzn-stat: 2AutonomousSearchNumBackupCalled=804
%%%mzn-stat: 2AutonomousSearchNumPredicatesRemoved=0
%%%mzn-stat: 2AutonomousSearchNumCalls=806
%%%mzn-stat: 2AutonomousSearchNumPredicatesAdded=479
%%%mzn-stat: 2AutonomousSearchAverageSizeOfHeap=0.8337468982630273
%%%mzn-stat: 2AutonomousSearchNumAssignedPredicatesEncountered=672
%%%mzn-stat-end
maxleg = 911;
succ = array1d(1..50,[8, 7, 17, 18, 2, 10, 1, 26, 5, 27, 14, 13, 11, 6, 37, 3, 9, 28, 4, 30, 36, 19, 24, 20, 16, 44, 31, 15, 35, 33, 25, 40, 29, 49, 34, 42, 12, 39, 50, 21, 38, 45, 48, 41, 22, 32, 43, 23, 46, 47]);
% time elapsed: 1.63 s
----------
==========
% time elapsed: 1.63 s
%%%mzn-stat: initTime=0.006541279
%%%mzn-stat: objective=911
%%%mzn-stat: nodes=4614
%%%mzn-stat: restarts=0
%%%mzn-stat: peakDepth=458
%%%mzn-stat: solveTime=0.076491034
%%%mzn-stat: variables=1055
%%%mzn-stat: propagators=671
%%%mzn-stat: failures=271
%%%mzn-stat: propagations=28928
%%%mzn-stat: nogoods=271
%%%mzn-stat: numAtomicConstraintsPropagated=0
%%%mzn-stat: allDifferentNumber1TotalHallSetSize=1472
%%%mzn-stat: allDifferentNumber1NumberOfConflicts=270
%%%mzn-stat: allDifferentNumber1MaxHallSetSize=41
%%%mzn-stat: allDifferentNumber1PropagationsTotal=4697
%%%mzn-stat: allDifferentNumber1PropagationsThatFoundConflict=270
%%%mzn-stat: circuitNumber2PropagationsThatFoundConflict=0
%%%mzn-stat: circuitNumber2TotalFixedEdgesAtConflict=0
%%%mzn-stat: circuitNumber2NumberOfConflicts=0
%%%mzn-stat: circuitNumber2PropagationsThatPruned=15
%%%mzn-stat: circuitNumber2PropagationsTotal=3657
%%%mzn-stat: AverageConflictSize=5.099630996309963
%%%mzn-stat: NumUnitNogoodsLearned=1
%%%mzn-stat: AverageLearnedNogoodLength=5.686346863468635
%%%mzn-stat: AverageBacktrackAmount=0
%%%mzn-stat: AverageLbd=5.239852398523985
%%%mzn-stat: 2AutonomousSearchNumBackupCalled=804
%%%mzn-stat: 2AutonomousSearchNumPredicatesRemoved=0
%%%mzn-stat: 2AutonomousSearchNumCalls=806
%%%mzn-stat: 2AutonomousSearchNumPredicatesAdded=528
%%%mzn-stat: 2AutonomousSearchAverageSizeOfHeap=0.8337468982630273
%%%mzn-stat: 2AutonomousSearchNumAssignedPredicatesEncountered=672
%%%mzn-stat-end
